Nb of jobs, Nb of Machines, Time seed, Machine seed, Upper bound, Lower bound
3,10,-1,-1,-1,-1
Times
11,74,91,57,1,40,64,2,49,47
75,33,85,12,94,14,85,63,78,49
98,95,40,32,89,1,27,22,75,4
Machines
2,8,5,10,4,3,1,9,7,6
5,3,8,9,2,7,10,4,1,6
2,8,6,3,5,1,4,7,9,10
